40
1 0 7
3 0 4
3 2 2
4 1 4
5 0 7
5 3 9
6 0 5
6 2 1
6 3 3
6 5 3
7 0 8
7 1 5
7 2 10
7 3 4
7 5 4
8 0 4
8 1 2
8 2 5
8 5 5
8 6 10
8 7 4
9 2 3
9 5 8
9 7 2
9 8 3
10 4 5
10 5 1
10 6 1
10 7 2
10 9 7
11 0 1
11 2 10
11 4 4
11 6 7
11 8 10
12 3 7
12 4 9
12 7 3
12 8 10
12 9 7
12 10 7
13 3 2
13 5 10
13 6 3
14 2 8
14 3 4
14 5 2
14 6 2
14 8 7
14 10 2
14 11 2
15 1 3
15 4 5
15 5 8
15 6 6
15 7 8
15 9 2
15 11 5
15 12 10
15 13 1
16 0 6
16 4 6
16 5 8
16 6 7
16 8 1
16 9 2
16 10 5
16 11 3
16 13 8
17 8 9
17 10 4
17 11 9
17 12 4
17 13 3
17 15 7
18 0 7
18 2 5
18 6 9
18 8 6
18 10 10
18 11 10
18 12 4
18 13 7
18 15 3
19 0 9
19 3 7
19 5 6
19 7 7
19 8 3
19 10 1
19 13 8
19 15 8
19 17 10
20 0 8
20 2 9
20 3 9
20 4 8
20 10 2
20 11 10
20 17 8
20 18 3
20 19 5
21 1 9
21 2 10
21 4 1
21 5 7
21 6 7
21 10 1
21 11 7
21 12 7
21 14 9
21 16 10
21 19 7
22 3 4
22 6 8
22 7 4
22 11 3
22 12 8
22 14 6
22 16 10
22 17 2
22 19 5
22 20 1
23 3 3
23 4 5
23 5 7
23 8 9
23 10 9
23 11 8
23 12 6
23 13 9
23 17 9
23 20 8
23 22 4
24 0 6
24 1 2
24 2 10
24 4 8
24 5 4
24 7 1
24 8 4
24 9 9
24 13 7
24 16 10
24 18 6
24 19 4
24 20 6
24 21 7
24 23 5
25 1 10
25 2 3
25 6 6
25 7 7
25 13 6
25 14 9
25 16 6
25 19 3
25 20 2
25 21 3
25 22 5
25 23 5
25 24 6
26 0 9
26 2 6
26 3 8
26 8 1
26 9 9
26 11 5
26 12 4
26 15 2
26 17 5
26 21 10
26 22 3
26 23 5
26 24 9
27 0 4
27 1 3
27 2 7
27 4 6
27 5 3
27 6 5
27 7 2
27 9 7
27 10 8
27 13 6
27 17 3
27 21 7
27 22 5
27 23 5
27 26 9
28 0 1
28 1 8
28 3 7
28 4 9
28 5 7
28 6 5
28 10 1
28 16 9
28 17 4
28 18 6
28 20 3
28 26 8
29 0 10
29 1 2
29 6 5
29 9 1
29 10 10
29 15 8
29 16 1
29 17 7
29 19 9
29 21 8
29 23 10
29 26 7
29 28 3
30 4 5
30 5 4
30 10 4
30 11 5
30 14 6
30 15 9
30 16 2
30 19 8
30 27 4
30 28 4
30 29 4
31 0 4
31 5 1
31 6 8
31 7 9
31 8 9
31 9 5
31 14 9
31 15 7
31 17 10
31 18 9
31 19 10
31 20 10
31 22 6
31 23 6
31 24 9
31 25 5
31 26 4
32 0 4
32 1 10
32 3 5
32 5 10
32 7 4
32 8 3
32 12 8
32 13 3
32 14 8
32 16 1
32 19 6
32 22 1
32 23 3
32 24 1
32 25 4
32 27 7
32 29 3
33 1 9
33 2 6
33 3 10
33 6 2
33 7 3
33 11 2
33 13 4
33 14 8
33 18 1
33 20 4
33 24 9
33 25 2
33 27 6
33 28 5
33 31 8
33 32 3
34 0 1
34 1 1
34 2 7
34 8 5
34 9 9
34 13 6
34 19 5
34 20 8
34 22 3
34 25 6
34 27 3
34 28 4
34 30 7
34 33 6
35 1 4
35 9 3
35 10 8
35 13 9
35 18 9
35 19 3
35 24 9
35 25 4
35 28 10
35 29 5
35 30 1
35 31 5
35 32 5
36 1 3
36 4 7
36 6 10
36 7 10
36 11 8
36 12 8
36 15 9
36 17 8
36 19 6
36 23 8
36 25 3
36 26 4
36 27 6
36 28 1
36 30 1
36 31 10
36 33 2
36 35 6
37 2 1
37 4 7
37 5 8
37 6 10
37 8 8
37 9 5
37 10 7
37 11 2
37 13 1
37 14 4
37 16 10
37 18 7
37 19 10
37 23 1
37 24 10
37 25 8
37 26 6
37 29 4
37 30 7
37 32 7
37 34 3
37 36 2
38 3 5
38 4 10
38 6 2
38 7 8
38 10 1
38 11 7
38 13 7
38 14 9
38 16 1
38 17 6
38 19 10
38 22 5
38 23 10
38 24 8
38 25 2
38 26 6
38 29 3
38 30 4
38 32 8
38 33 7
38 37 8
39 0 1
39 1 7
39 12 8
39 13 8
39 15 1
39 16 5
39 17 4
39 18 6
39 20 8
39 23 9
39 24 10
39 26 10
39 27 2
39 28 10
39 29 8
39 30 6
39 32 1
39 35 10
39 36 4
39 38 1
